3872352
13291563
13505441
24629299
39179741
63871479
66875924
69987933
82158301
89089434
100705996
109810314
110968972
145184323
159851757
160849192
162509052
172247656
175597999
181052632
193894191
222816188
229529031
246688573
276809866
280470075
297084117
344818828
355556999
395480246
402504411
404918065
411593038
436851559
441206628
467403989
483724803
494419332
495049145
504451712
526667534
543810548
559551646
569644291
616961756
646227016
647871394
666239134
687126914
690839335
695942852
700589139
723719497
756466619
763738853
821853906
836769617
845874133
861296929
879553246
898162722
904000918
909935131
955793173
964317475
969875075
979030905
984289615
995179536
1036012805
1040221096
1050200775
1051183630
1071657455
1072039186
1083203327
1094949004
1114702482
1116310735
1131656467
1146424196
1149080111
1149443662
1162866612
1175625017
1185588114
1197766794
1221245594
1222715339
1244373711
1265828241
1274523833
1305263545
1311252764
1350560906
1352212767
1376396569
1397372780
1419162753
1419694234
1431168746
1446257766
1491206359
1501718903
1508363013
1509197110
1510993493
1527350246
1535580561
1538636030
1544877159
1556210280
1596352688
1603251530
1606743499
1611799979
1652898873
1665604257
1672095480
1690335900
1691864367
1695371887
1696648494
1698871087
1717927542
1724796870
1751014279
1778402187
1780221321
1795766826
1798986912
1800279649
1805179077
1826543845
1831520282
1843473937
1894093555
1909886029
1927598797
1932029710
1932964620
1933951268
1939595593
1969805470
1972136159
2005575331
2019651998
2061632267
2108479646
2143566401
2148887975
2149302953
2159364897
2160633926
2171712442
2175014833
2175555707
2186345974
2190154518
2196706050
2217092204
2217454122
2221634338
2238390410
2292740583
2308394380
2320927971
2325762287
2339181073
2340486744
2349553377
2350446827
2373622971
2375692896
2386450571
2391093262
2422610491
2426758880
2442329552
2469288008
2485706760
2498427926
2515066280
2516450152
2532895400
2540954578
2549165726
2584889689
2591703729
2600791923
2610154806
2623433727
2629779879
2648821816
2650049064
2667270055
2667956907
2732053950
2739186263
2753506156
2762962130
2767177681
2783698784
2784244169
2792499633
2795232963
2824807123
2840186720
2841751077
2849462269
2855303320
2859108863
2866436124
2867239792
2875688216
2901887325
2915757625
2917116363
2918511145
2936791360
2964903710
2976030664
2981397237
3001534175
3040538880
3068137315
3117272100
3163881789
3175778902
3189715771
3192959663
3197484780
3210695058
3236182084
3296005900
3298096823
3314704124
3320434687
3351762572
3355266176
3359236046
3364072995
3367527797
3388058409
3395646536
3413679926
3434883183
3450327289
3461399406
3480800674
3485038435
3498750875
3512036078
3527846966
3537700596
3548646044
3551001385
3575820255
3581570960
3585468444
3639135852
3644338714
3668436310
3681071763
3684010224
3695614773
3703288509
3705636992
3737018027
3761868012
3801724791
3801927689
3856453231
3864607255
3866693284
3880917351
3881627149
3887818477
3907694682
3923136939
3931142006
3947362989
3950370747
3962411617
3968242089
3975569787
3986725134
3992042987
4001218754
4004441528
4008628272
4015050506
4036368348
4036489161
4040189182
4041010034
4045069057
4060347737
4064209811
4094997137
4095075752
4102393270
4121330983
4154187128
4186437367
4186439460
4194296682
4196887253
4247283051
4252646805
4255436775
4259113861
4262343427
4292478817
